c clasp version 2.1.1
c Reading from p70.cnf
c Solving...
s SATISFIABLE

c Models        : 1+    
c Time          : 1.233s (Solving: 0.36s 1st Model: 0.35s Unsat: 0.00s)
c CPU Time      : 1.230s
c Choices       : 17686
c Conflicts     : 1125
c Restarts      : 2      (Average: 562.50 Last: 123)

c Variables     : 228894 (Eliminated: 71473 Frozen:    0)
c Constraints   : 252451 (Binary: 65.4% Ternary: 33.2% Other:  1.4%)
c Lemmas        : 1125   (Binary:  0.1% Ternary:  0.7% Other: 99.2%)
c   Conflict    : 1125   (Average Length: 110.2) 
c   Loop        : 0      (Average Length: 0.0) 
c   Other       : 0      (Average Length: 0.0)
c   Deleted     : 0     
